glpk/teste.dat
data;
param NVALUES := 6;

param Size:= 7;
param InitialLine:=
1 1
2 2
3 4
4 6
5 6
6 7
;

param InitialColumn:=
1 1
2 1
3 2
4 4
5 5
6 6
;
