glpk/teste.sol
Problem:    bwag
Rows:       27
Columns:    50 (49 integer, 49 binary)
Non-zeros:  251
Status:     INTEGER OPTIMAL
Objective:  maiorbanda = 2 (MINimum)

   No.   Row name        Activity     Lower bound   Upper bound
------ ------------    ------------- ------------- -------------
     1 maiorbanda                  2
     2 UmValorA[1]                 1             1             =
     3 UmValorA[2]                 1             1             =
     4 UmValorA[3]                 1             1             =
     5 UmValorA[4]                 1             1             =
     6 UmValorA[5]                 1             1             =
     7 UmValorA[6]                 1             1             =
     8 UmValorA[7]                 1             1             =
     9 UmValorB[1]                 1             1             =
    10 UmValorB[2]                 1             1             =
    11 UmValorB[3]                 1             1             =
    12 UmValorB[4]                 1             1             =
    13 UmValorB[5]                 1             1             =
    14 UmValorB[6]                 1             1             =
    15 UmValorB[7]                 1             1             =
    16 LimiteBandaA[1]
                                  -2                          -0
    17 LimiteBandaA[2]
                                  -3                          -0
    18 LimiteBandaA[3]
                                  -3                          -0
    19 LimiteBandaA[4]
                                  -3                          -0
    20 LimiteBandaA[5]
                                  -1                          -0
    21 LimiteBandaA[6]
                                  -4                          -0
    22 LimiteBandaB[1]
                                  -2                          -0
    23 LimiteBandaB[2]
                                  -1                          -0
    24 LimiteBandaB[3]
                                  -1                          -0
    25 LimiteBandaB[4]
                                  -1                          -0
    26 LimiteBandaB[5]
                                  -3                          -0
    27 LimiteBandaB[6]
                                   0                          -0

   No. Column name       Activity     Lower bound   Upper bound
------ ------------    ------------- ------------- -------------
     1 neworder[1,1]
                    *              1             0             1
     2 neworder[1,2]
                    *              0             0             1
     3 neworder[1,3]
                    *              0             0             1
     4 neworder[1,4]
                    *              0             0             1
     5 neworder[1,5]
                    *              0             0             1
     6 neworder[1,6]
                    *              0             0             1
     7 neworder[1,7]
                    *              0             0             1
     8 neworder[2,1]
                    *              0             0             1
     9 neworder[2,2]
                    *              1             0             1
    10 neworder[2,3]
                    *              0             0             1
    11 neworder[2,4]
                    *              0             0             1
    12 neworder[2,5]
                    *              0             0             1
    13 neworder[2,6]
                    *              0             0             1
    14 neworder[2,7]
                    *              0             0             1
    15 neworder[3,1]
                    *              0             0             1
    16 neworder[3,2]
                    *              0             0             1
    17 neworder[3,3]
                    *              0             0             1
    18 neworder[3,4]
                    *              0             0             1
    19 neworder[3,5]
                    *              0             0             1
    20 neworder[3,6]
                    *              0             0             1
    21 neworder[3,7]
                    *              1             0             1
    22 neworder[4,1]
                    *              0             0             1
    23 neworder[4,2]
                    *              0             0             1
    24 neworder[4,3]
                    *              1             0             1
    25 neworder[4,4]
                    *              0             0             1
    26 neworder[4,5]
                    *              0             0             1
    27 neworder[4,6]
                    *              0             0             1
    28 neworder[4,7]
                    *              0             0             1
    29 neworder[5,1]
                    *              0             0             1
    30 neworder[5,2]
                    *              0             0             1
    31 neworder[5,3]
                    *              0             0             1
    32 neworder[5,4]
                    *              0             0             1
    33 neworder[5,5]
                    *              1             0             1
    34 neworder[5,6]
                    *              0             0             1
    35 neworder[5,7]
                    *              0             0             1
    36 neworder[6,1]
                    *              0             0             1
    37 neworder[6,2]
                    *              0             0             1
    38 neworder[6,3]
                    *              0             0             1
    39 neworder[6,4]
                    *              1             0             1
    40 neworder[6,5]
                    *              0             0             1
    41 neworder[6,6]
                    *              0             0             1
    42 neworder[6,7]
                    *              0             0             1
    43 neworder[7,1]
                    *              0             0             1
    44 neworder[7,2]
                    *              0             0             1
    45 neworder[7,3]
                    *              0             0             1
    46 neworder[7,4]
                    *              0             0             1
    47 neworder[7,5]
                    *              0             0             1
    48 neworder[7,6]
                    *              1             0             1
    49 neworder[7,7]
                    *              0             0             1
    50 banda                       2             0

Integer feasibility conditions:

INT.PE: max.abs.err. = 0.00e+00 on row 0
        max.rel.err. = 0.00e+00 on row 0
        High quality

INT.PB: max.abs.err. = 0.00e+00 on row 0
        max.rel.err. = 0.00e+00 on row 0
        High quality

End of output
